Optimal - objective value 15.00000000
      0 C0000000       6358723.9                      -0
      1 C0000001        12732172                      -0
      2 C0000002              14                      -0
      3 C0000003              14                      -0
      4 C0000004              14                      -0
      5 C0000005              14                      -0
      6 C0000006              14                      -0
      7 C0000007              14                      -0
      8 C0000008              15                      -0
      9 C0000009              15                      -0
     10 C0000010              14                      -0
     11 C0000011              14                      -0
     12 C0000012              14                      -0
     13 C0000013              14                      -0
     14 C0000014              14                      -0
     15 C0000015              15                      -0
     16 C0000016              14                      -0
     17 C0000017              14                      -0
     18 C0000018              15                      -0
     19 C0000019              14                      -0
     20 C0000020              14                      -0
     21 C0000021              15                      -0
     22 C0000022              14                      -0
     23 C0000023              15                      -0
     24 C0000024              14                      -0
     25 C0000025              14                      -0
     26 C0000026              14                      -0
     27 C0000027              15                      -0
     28 C0000028              14                      -0
     29 C0000029              14                      -0
     30 C0000030              14                       1
     31 C0000031              14                      -0
     32 C0000032              14                      -0
     33 C0000033              15                      -0
     34 C0000034              14                      -0
     35 C0000035              15                      -0
     36 C0000036              14                      -0
     37 C0000037              15                      -0
     38 C0000038              15                      -0
     39 C0000039              14                      -0
     40 C0000040              15                      -0
     41 C0000041              14                      -0
     42 C0000042              15                      -0
     43 C0000043              15                      -0
     44 C0000044              14                      -0
     45 C0000045              15                      -0
     46 C0000046        14.57909                      -0
     47 C0000047              15                      -0
     48 C0000048              14                      -0
     49 C0000049        14.42091                      -0
     50 C0000050              14                      -0
     51 C0000051              15                      -0
     52 C0000052              15                      -0
     53 C0000053              15                      -0
     54 C0000054              15                      -0
      0 X0000000               0                      -1
      1 X0000001               1                       1
      2 X0000002               0                       0
      3 X0000003               1                       0
      4 X0000004               1                       0
      5 X0000005               0                       0
      6 X0000006               1                       0
      7 X0000007               0                       0
      8 X0000008      0.57908981                       0
      9 X0000009               1                       0
     10 X0000010               0                       0
     11 X0000011      0.42091019                       0
     12 X0000012               0                      -1
     13 X0000013               1                       0
     14 X0000014               1                       0
     15 X0000015               1                       0
     16 X0000016               1                       0
     17 X0000017               0                       0
     18 X0000018               1                       0
     19 X0000019               0                       0
     20 X0000020               1                       0
     21 X0000021               1                       0
     22 X0000022               0                       0
     23 X0000023               1                       0
